Maximize
  - 0.01659379916866 edge_0_1_0_0 - 3.8442954878445 edge_0_2_0_0
   - 2.074295524109 edge_0_3_0_0 - 2.760586286767 edge_0_4_0_0
   - 1.8122897825252 edge_0_6_0_0 - 2.478177904947 edge_0_8_0_0
   - 1.280257160325 edge_0_11_0_0 - 1.1992881957768 edge_0_14_0_0
   - 1.2678415828837 edge_0_20_0_0 + 1.724186200620405 edge_1_3_0_0
   + 1.502090674148366 edge_1_8_0_0 + 0.2028370432275121 edge_1_11_0_0
   + 0.4256185237346558 edge_1_30_0_0 + 2.964638753522962 edge_1_31_0_0
   + 0.7758829214922736 edge_2_3_0_0 + 0.5233087436400188 edge_2_4_0_0
   - 0.0882475034097283 edge_2_6_0_0 - 0.2848686253701435 edge_2_7_0_0
   - 0.00833437240317962 edge_2_8_0_0 + 0.3369834575891726 edge_2_9_0_0
   - 0.4416793782985665 edge_2_10_0_0 - 0.0984912561844683 edge_2_11_0_0
   - 0.7703563488441585 edge_2_14_0_0 + 0.0910732395553279 edge_2_15_0_0
   - 0.1471718814979179 edge_2_17_0_0 - 0.7046075694066835 edge_2_18_0_0
   - 0.1914989962253771 edge_2_20_0_0 + 0.7560686631783494 edge_2_23_0_0
   - 0.939246063539506 edge_2_24_0_0 - 2.8116927035247 edge_2_30_0_0
   + 0.9413368744761273 edge_3_2_0_0 + 2.755509031693751 edge_3_4_0_0
   + 1.962784090942381 edge_3_6_0_0 + 0.0108277318676401 edge_3_7_0_0
   + 1.282638100484394 edge_3_8_0_0 + 2.306785020119285 edge_3_9_0_0
   + 0.0593563908780833 edge_3_10_0_0 + 1.439093226801102 edge_3_11_0_0
   + 0.1231199864454432 edge_3_14_0_0 + 2.456451536766219 edge_3_15_0_0
   + 0.7281339295273165 edge_3_17_0_0 + 0.1011142835538056 edge_3_20_0_0
   + 2.938247114342837 edge_3_22_0_0 + 0.9146568772356859 edge_3_23_0_0
   - 0.7014559770890127 edge_3_26_0_0 + 0.0769755523342529 edge_3_30_0_0
   + 5.395959345553 edge_3_31_0_0 + 0.1936511961429156 edge_4_2_0_0
   + 1.061278767152924 edge_4_3_0_0 + 0.7977634130126239 edge_4_5_0_0
   + 3.857410643802367 edge_4_6_0_0 + 0.1679722730666162 edge_4_7_0_0
   + 2.327320805496689 edge_4_8_0_0 + 1.888177025274285 edge_4_9_0_0
   + 0.2516594842739756 edge_4_10_0_0 + 2.265504681095536 edge_4_11_0_0
   + 1.357508842029131 edge_4_14_0_0 + 1.875858985155358 edge_4_15_0_0
   - 0.5466046626042109 edge_4_16_0_0 + 0.7167499068984353 edge_4_17_0_0
   - 1.12563764107491 edge_4_18_0_0 + 0.6511443918605118 edge_4_20_0_0
   + 2.27122245299361 edge_4_22_0_0 + 1.584906815694773 edge_4_23_0_0
   - 0.9974159610794613 edge_4_24_0_0 + 0.9315065828196295 edge_4_26_0_0
   + 3.8290322756639 edge_4_31_0_0 + 0.4316231622497143 edge_6_2_0_0
   + 0.3513188686188307 edge_6_3_0_0 + 1.568805189988055 edge_6_4_0_0
   + 3.490057711277024 edge_6_5_0_0 + 0.9881148333805557 edge_6_7_0_0
   + 3.331894835555572 edge_6_8_0_0 + 1.993409602520419 edge_6_9_0_0
   + 0.2790757140206703 edge_6_10_0_0 + 1.51098373799473 edge_6_11_0_0
   + 1.31937784336344 edge_6_14_0_0 + 1.402149865339496 edge_6_15_0_0
   - 0.182671019874455 edge_6_16_0_0 + 0.452334478966256 edge_6_17_0_0
   - 0.111055545397973 edge_6_18_0_0 + 0.2968553340473356 edge_6_20_0_0
   + 1.42273457842183 edge_6_22_0_0 + 0.5275089948934131 edge_6_23_0_0
   - 0.1634372600270064 edge_6_24_0_0 - 0.2079712758651839 edge_6_25_0_0
   - 1.292628057239614 edge_6_26_0_0 + 4.268309487802799 edge_6_31_0_0
   - 0.00658579497967484 edge_7_10_0_0 + 0.2338133720984191 edge_8_1_0_0
   + 0.9913069140095131 edge_8_3_0_0 + 0.2897143031681141 edge_8_5_0_0
   + 0.3047925275709023 edge_8_6_0_0 + 2.908832886309724 edge_8_7_0_0
   + 1.731503878869112 edge_8_9_0_0 + 0.2401458672073688 edge_8_10_0_0
   + 0.3473318912844852 edge_8_11_0_0 + 0.5950866337114569 edge_8_14_0_0
   + 1.131517710163361 edge_8_15_0_0 + 0.0582141477983536 edge_8_17_0_0
   + 0.4943233986478418 edge_8_30_0_0 + 2.2948667183359 edge_8_31_0_0
   - 0.3291097794080435 edge_10_14_0_0 - 0.0281865484680992 edge_11_1_0_0
   + 0.0458819487253139 edge_11_3_0_0 - 0.4035516473343859 edge_11_4_0_0
   + 0.091763296993319 edge_11_6_0_0 - 0.2543176581437248 edge_11_7_0_0
   + 0.1331436478044314 edge_11_8_0_0 + 0.8265617931694916 edge_11_9_0_0
   + 2.770119686827496 edge_11_10_0_0 + 0.9268459325502367 edge_11_13_0_0
   + 3.620753619067266 edge_11_14_0_0 + 1.931496036393293 edge_11_15_0_0
   + 0.4143250252248036 edge_11_16_0_0 + 0.731292371680063 edge_11_17_0_0
   - 0.4098812234649842 edge_11_18_0_0 + 0.5274132664155183 edge_11_20_0_0
   + 2.033361387613238 edge_11_22_0_0 + 1.293260381183377 edge_11_23_0_0
   - 0.075781069635985 edge_11_24_0_0 - 0.0664597291265523 edge_11_25_0_0
   + 0.2156838425297892 edge_11_26_0_0 + 0.1313560648308115 edge_11_30_0_0
   + 3.6167496188532 edge_11_31_0_0 - 0.416205911820997 edge_14_2_0_0
   - 0.9021155331476503 edge_14_3_0_0 - 0.4088554505241336 edge_14_4_0_0
   + 0.6402655728065221 edge_14_6_0_0 - 0.2087527928591911 edge_14_7_0_0
   + 0.3829769424533891 edge_14_8_0_0 + 0.9394378179293124 edge_14_9_0_0
   + 1.29660278397938 edge_14_10_0_0 + 1.464341841349193 edge_14_11_0_0
   + 3.697996571292328 edge_14_13_0_0 + 1.1118563410039 edge_14_15_0_0
   - 0.1416105844627346 edge_14_16_0_0 + 0.3391773419225682 edge_14_17_0_0
   - 0.1936381402345304 edge_14_18_0_0 + 0.3333358193781313 edge_14_20_0_0
   + 1.082220458929803 edge_14_22_0_0 - 0.0990459987473495 edge_14_23_0_0
   - 0.4392697695825199 edge_14_24_0_0 + 3.526980604473601 edge_14_31_0_0
   - 0.159215167686857 edge_16_18_0_0 - 1.009046951616481 edge_18_3_0_0
   - 0.5227857353337095 edge_18_16_0_0 - 0.1924264325418252 edge_20_2_0_0
   + 0.0511883410116223 edge_20_3_0_0 + 0.258327144354404 edge_20_4_0_0
   + 0.0113087857898445 edge_20_6_0_0 - 0.0673916153650022 edge_20_8_0_0
   + 0.5148682658604924 edge_20_9_0_0 - 0.0943634982928944 edge_20_10_0_0
   + 0.6540284759140385 edge_20_11_0_0 + 0.3180828758845359 edge_20_14_0_0
   + 0.3351273670641848 edge_20_15_0_0 + 0.6871410296760044 edge_20_16_0_0
   + 0.737198117759161 edge_20_17_0_0 + 1.593061946580021 edge_20_18_0_0
   + 1.236807339233872 edge_20_22_0_0 + 1.171615328156775 edge_20_23_0_0
   + 0.6172758523000067 edge_20_24_0_0 + 0.1918581944042734 edge_20_25_0_0
   + 0.8722895605963908 edge_20_26_0_0 - 0.4916476951228488 edge_20_27_0_0
   - 0.2613262137555141 edge_20_28_0_0 - 0.7417798703656 edge_20_30_0_0
   + 2.3290764929575 edge_20_31_0_0 + 0.2769381961857903 edge_23_22_0_0
   + 0.2927172839633469 edge_23_24_0_0 - 0.659025501724217 edge_24_16_0_0
   - 0.0910990189546741 edge_24_18_0_0 + 0.5534510323860904 edge_24_22_0_0
   + 0.850019199994154 edge_24_23_0_0 + 0.0783862724437529 edge_24_25_0_0
   + 0.2764575457769371 edge_24_26_0_0 - 0.0950319357297466 edge_24_27_0_0
   - 0.4694723483001166 edge_24_28_0_0 - 0.5998695070082 edge_24_30_0_0
   + 0.4379289173175751 edge_25_26_0_0 - 0.1058103781613906 edge_25_27_0_0
   - 0.5239388876211112 edge_25_28_0_0 - 0.47247257047852 edge_25_30_0_0
   - 1.238086011586403 edge_26_2_0_0 - 1.166787598369326 edge_26_3_0_0
   - 1.06711515878855 edge_26_4_0_0 - 0.2527440874453074 edge_26_11_0_0
   - 1.37406326350166 edge_26_16_0_0 - 0.082766242591657 edge_26_20_0_0
   - 0.1260335797767485 edge_26_24_0_0 + 0.6772235112553052 edge_26_25_0_0
   + 1.811967415388425 edge_26_27_0_0 - 0.00256008 edge_26_28_0_0
   + 2.0230673594825 edge_26_30_0_0 + 1.8093777661525 edge_26_31_0_0
   + 1.142921353023626 edge_27_28_0_0 + 0.6452628007448908 edge_27_29_0_0
   + 0.7369377303606 edge_27_30_0_0 + 2.252270467970096 edge_28_27_0_0
   + 0.8531360623357391 edge_28_29_0_0 + 0.6761303478041401 edge_28_30_0_0
   + 0.4680640290676124 edge_29_28_0_0 - 0.2848700655027575 edge_30_1_0_0
   - 0.2976851219312368 edge_30_3_0_0 - 0.4783398854774334 edge_30_8_0_0
   + 0.0607796432556875 edge_30_11_0_0 + 0.83057194819606 edge_30_27_0_0
   + 2.5427887735959 edge_30_28_0_0 + 3.439615700475 edge_30_29_0_0
   + 0.6848084551938485 edge_30_31_0_0 - 0.4732281006091333 edge_31_30_0_0
Subject To
 one_parent_1: edge_0_1_0_0 + edge_8_1_0_0 + edge_11_1_0_0 + edge_30_1_0_0
   = 1
 consume_one_flow_unit_1: flow_0_1_0_0 - flow_1_3_0_0 - flow_1_8_0_0
   - flow_1_11_0_0 - flow_1_30_0_0 - flow_1_31_0_0 + flow_8_1_0_0
   + flow_11_1_0_0 + flow_30_1_0_0 = 1
 one_parent_2: edge_0_2_0_0 + edge_3_2_0_0 + edge_4_2_0_0 + edge_6_2_0_0
   + edge_14_2_0_0 + edge_20_2_0_0 + edge_26_2_0_0 = 1
 consume_one_flow_unit_2: flow_0_2_0_0 - flow_2_3_0_0 - flow_2_4_0_0
   - flow_2_6_0_0 - flow_2_7_0_0 - flow_2_8_0_0 - flow_2_9_0_0
   - flow_2_10_0_0 - flow_2_11_0_0 - flow_2_14_0_0 - flow_2_15_0_0
   - flow_2_17_0_0 - flow_2_18_0_0 - flow_2_20_0_0 - flow_2_23_0_0
   - flow_2_24_0_0 - flow_2_30_0_0 + flow_3_2_0_0 + flow_4_2_0_0
   + flow_6_2_0_0 + flow_14_2_0_0 + flow_20_2_0_0 + flow_26_2_0_0 = 1
 one_parent_3: edge_0_3_0_0 + edge_1_3_0_0 + edge_2_3_0_0 + edge_4_3_0_0
   + edge_6_3_0_0 + edge_8_3_0_0 + edge_11_3_0_0 + edge_14_3_0_0
   + edge_18_3_0_0 + edge_20_3_0_0 + edge_26_3_0_0 + edge_30_3_0_0 = 1
 consume_one_flow_unit_3: flow_0_3_0_0 + flow_1_3_0_0 + flow_2_3_0_0
   - flow_3_2_0_0 - flow_3_4_0_0 - flow_3_6_0_0 - flow_3_7_0_0
   - flow_3_8_0_0 - flow_3_9_0_0 - flow_3_10_0_0 - flow_3_11_0_0
   - flow_3_14_0_0 - flow_3_15_0_0 - flow_3_17_0_0 - flow_3_20_0_0
   - flow_3_22_0_0 - flow_3_23_0_0 - flow_3_26_0_0 - flow_3_30_0_0
   - flow_3_31_0_0 + flow_4_3_0_0 + flow_6_3_0_0 + flow_8_3_0_0
   + flow_11_3_0_0 + flow_14_3_0_0 + flow_18_3_0_0 + flow_20_3_0_0
   + flow_26_3_0_0 + flow_30_3_0_0 = 1
 one_parent_4: edge_0_4_0_0 + edge_2_4_0_0 + edge_3_4_0_0 + edge_6_4_0_0
   + edge_11_4_0_0 + edge_14_4_0_0 + edge_20_4_0_0 + edge_26_4_0_0 = 1
 consume_one_flow_unit_4: flow_0_4_0_0 + flow_2_4_0_0 + flow_3_4_0_0
   - flow_4_2_0_0 - flow_4_3_0_0 - flow_4_5_0_0 - flow_4_6_0_0
   - flow_4_7_0_0 - flow_4_8_0_0 - flow_4_9_0_0 - flow_4_10_0_0
   - flow_4_11_0_0 - flow_4_14_0_0 - flow_4_15_0_0 - flow_4_16_0_0
   - flow_4_17_0_0 - flow_4_18_0_0 - flow_4_20_0_0 - flow_4_22_0_0
   - flow_4_23_0_0 - flow_4_24_0_0 - flow_4_26_0_0 - flow_4_31_0_0
   + flow_6_4_0_0 + flow_11_4_0_0 + flow_14_4_0_0 + flow_20_4_0_0
   + flow_26_4_0_0 = 1
 one_parent_5: edge_4_5_0_0 + edge_6_5_0_0 + edge_8_5_0_0 = 1
 consume_one_flow_unit_5: flow_4_5_0_0 + flow_6_5_0_0 + flow_8_5_0_0 = 1
 one_parent_6: edge_0_6_0_0 + edge_2_6_0_0 + edge_3_6_0_0 + edge_4_6_0_0
   + edge_8_6_0_0 + edge_11_6_0_0 + edge_14_6_0_0 + edge_20_6_0_0 = 1
 consume_one_flow_unit_6: flow_0_6_0_0 + flow_2_6_0_0 + flow_3_6_0_0
   + flow_4_6_0_0 - flow_6_2_0_0 - flow_6_3_0_0 - flow_6_4_0_0
   - flow_6_5_0_0 - flow_6_7_0_0 - flow_6_8_0_0 - flow_6_9_0_0
   - flow_6_10_0_0 - flow_6_11_0_0 - flow_6_14_0_0 - flow_6_15_0_0
   - flow_6_16_0_0 - flow_6_17_0_0 - flow_6_18_0_0 - flow_6_20_0_0
   - flow_6_22_0_0 - flow_6_23_0_0 - flow_6_24_0_0 - flow_6_25_0_0
   - flow_6_26_0_0 - flow_6_31_0_0 + flow_8_6_0_0 + flow_11_6_0_0
   + flow_14_6_0_0 + flow_20_6_0_0 = 1
 one_parent_7: edge_2_7_0_0 + edge_3_7_0_0 + edge_4_7_0_0 + edge_6_7_0_0
   + edge_8_7_0_0 + edge_11_7_0_0 + edge_14_7_0_0 = 1
 consume_one_flow_unit_7: flow_2_7_0_0 + flow_3_7_0_0 + flow_4_7_0_0
   + flow_6_7_0_0 - flow_7_10_0_0 + flow_8_7_0_0 + flow_11_7_0_0
   + flow_14_7_0_0 = 1
 one_parent_8: edge_0_8_0_0 + edge_1_8_0_0 + edge_2_8_0_0 + edge_3_8_0_0
   + edge_4_8_0_0 + edge_6_8_0_0 + edge_11_8_0_0 + edge_14_8_0_0
   + edge_20_8_0_0 + edge_30_8_0_0 = 1
 consume_one_flow_unit_8: flow_0_8_0_0 + flow_1_8_0_0 + flow_2_8_0_0
   + flow_3_8_0_0 + flow_4_8_0_0 + flow_6_8_0_0 - flow_8_1_0_0
   - flow_8_3_0_0 - flow_8_5_0_0 - flow_8_6_0_0 - flow_8_7_0_0
   - flow_8_9_0_0 - flow_8_10_0_0 - flow_8_11_0_0 - flow_8_14_0_0
   - flow_8_15_0_0 - flow_8_17_0_0 - flow_8_30_0_0 - flow_8_31_0_0
   + flow_11_8_0_0 + flow_14_8_0_0 + flow_20_8_0_0 + flow_30_8_0_0 = 1
 one_parent_9: edge_2_9_0_0 + edge_3_9_0_0 + edge_4_9_0_0 + edge_6_9_0_0
   + edge_8_9_0_0 + edge_11_9_0_0 + edge_14_9_0_0 + edge_20_9_0_0 = 1
 consume_one_flow_unit_9: flow_2_9_0_0 + flow_3_9_0_0 + flow_4_9_0_0
   + flow_6_9_0_0 + flow_8_9_0_0 + flow_11_9_0_0 + flow_14_9_0_0
   + flow_20_9_0_0 = 1
 one_parent_10: edge_2_10_0_0 + edge_3_10_0_0 + edge_4_10_0_0
   + edge_6_10_0_0 + edge_7_10_0_0 + edge_8_10_0_0 + edge_11_10_0_0
   + edge_14_10_0_0 + edge_20_10_0_0 = 1
 consume_one_flow_unit_10: flow_2_10_0_0 + flow_3_10_0_0 + flow_4_10_0_0
   + flow_6_10_0_0 + flow_7_10_0_0 + flow_8_10_0_0 - flow_10_14_0_0
   + flow_11_10_0_0 + flow_14_10_0_0 + flow_20_10_0_0 = 1
 one_parent_11: edge_0_11_0_0 + edge_1_11_0_0 + edge_2_11_0_0
   + edge_3_11_0_0 + edge_4_11_0_0 + edge_6_11_0_0 + edge_8_11_0_0
   + edge_14_11_0_0 + edge_20_11_0_0 + edge_26_11_0_0 + edge_30_11_0_0 = 1
 consume_one_flow_unit_11: flow_0_11_0_0 + flow_1_11_0_0 + flow_2_11_0_0
   + flow_3_11_0_0 + flow_4_11_0_0 + flow_6_11_0_0 + flow_8_11_0_0
   - flow_11_1_0_0 - flow_11_3_0_0 - flow_11_4_0_0 - flow_11_6_0_0
   - flow_11_7_0_0 - flow_11_8_0_0 - flow_11_9_0_0 - flow_11_10_0_0
   - flow_11_13_0_0 - flow_11_14_0_0 - flow_11_15_0_0 - flow_11_16_0_0
   - flow_11_17_0_0 - flow_11_18_0_0 - flow_11_20_0_0 - flow_11_22_0_0
   - flow_11_23_0_0 - flow_11_24_0_0 - flow_11_25_0_0 - flow_11_26_0_0
   - flow_11_30_0_0 - flow_11_31_0_0 + flow_14_11_0_0 + flow_20_11_0_0
   + flow_26_11_0_0 + flow_30_11_0_0 = 1
 one_parent_12: = 1
 consume_one_flow_unit_12: = 1
 one_parent_13: edge_11_13_0_0 + edge_14_13_0_0 = 1
 consume_one_flow_unit_13: flow_11_13_0_0 + flow_14_13_0_0 = 1
 one_parent_14: edge_0_14_0_0 + edge_2_14_0_0 + edge_3_14_0_0
   + edge_4_14_0_0 + edge_6_14_0_0 + edge_8_14_0_0 + edge_10_14_0_0
   + edge_11_14_0_0 + edge_20_14_0_0 = 1
 consume_one_flow_unit_14: flow_0_14_0_0 + flow_2_14_0_0 + flow_3_14_0_0
   + flow_4_14_0_0 + flow_6_14_0_0 + flow_8_14_0_0 + flow_10_14_0_0
   + flow_11_14_0_0 - flow_14_2_0_0 - flow_14_3_0_0 - flow_14_4_0_0
   - flow_14_6_0_0 - flow_14_7_0_0 - flow_14_8_0_0 - flow_14_9_0_0
   - flow_14_10_0_0 - flow_14_11_0_0 - flow_14_13_0_0 - flow_14_15_0_0
   - flow_14_16_0_0 - flow_14_17_0_0 - flow_14_18_0_0 - flow_14_20_0_0
   - flow_14_22_0_0 - flow_14_23_0_0 - flow_14_24_0_0 - flow_14_31_0_0
   + flow_20_14_0_0 = 1
 one_parent_15: edge_2_15_0_0 + edge_3_15_0_0 + edge_4_15_0_0
   + edge_6_15_0_0 + edge_8_15_0_0 + edge_11_15_0_0 + edge_14_15_0_0
   + edge_20_15_0_0 = 1
 consume_one_flow_unit_15: flow_2_15_0_0 + flow_3_15_0_0 + flow_4_15_0_0
   + flow_6_15_0_0 + flow_8_15_0_0 + flow_11_15_0_0 + flow_14_15_0_0
   + flow_20_15_0_0 = 1
 one_parent_16: edge_4_16_0_0 + edge_6_16_0_0 + edge_11_16_0_0
   + edge_14_16_0_0 + edge_18_16_0_0 + edge_20_16_0_0 + edge_24_16_0_0
   + edge_26_16_0_0 = 1
 consume_one_flow_unit_16: flow_4_16_0_0 + flow_6_16_0_0 + flow_11_16_0_0
   + flow_14_16_0_0 - flow_16_18_0_0 + flow_18_16_0_0 + flow_20_16_0_0
   + flow_24_16_0_0 + flow_26_16_0_0 = 1
 one_parent_17: edge_2_17_0_0 + edge_3_17_0_0 + edge_4_17_0_0
   + edge_6_17_0_0 + edge_8_17_0_0 + edge_11_17_0_0 + edge_14_17_0_0
   + edge_20_17_0_0 = 1
 consume_one_flow_unit_17: flow_2_17_0_0 + flow_3_17_0_0 + flow_4_17_0_0
   + flow_6_17_0_0 + flow_8_17_0_0 + flow_11_17_0_0 + flow_14_17_0_0
   + flow_20_17_0_0 = 1
 one_parent_18: edge_2_18_0_0 + edge_4_18_0_0 + edge_6_18_0_0
   + edge_11_18_0_0 + edge_14_18_0_0 + edge_16_18_0_0 + edge_20_18_0_0
   + edge_24_18_0_0 = 1
 consume_one_flow_unit_18: flow_2_18_0_0 + flow_4_18_0_0 + flow_6_18_0_0
   + flow_11_18_0_0 + flow_14_18_0_0 + flow_16_18_0_0 - flow_18_3_0_0
   - flow_18_16_0_0 + flow_20_18_0_0 + flow_24_18_0_0 = 1
 one_parent_19: = 1
 consume_one_flow_unit_19: = 1
 one_parent_20: edge_0_20_0_0 + edge_2_20_0_0 + edge_3_20_0_0
   + edge_4_20_0_0 + edge_6_20_0_0 + edge_11_20_0_0 + edge_14_20_0_0
   + edge_26_20_0_0 = 1
 consume_one_flow_unit_20: flow_0_20_0_0 + flow_2_20_0_0 + flow_3_20_0_0
   + flow_4_20_0_0 + flow_6_20_0_0 + flow_11_20_0_0 + flow_14_20_0_0
   - flow_20_2_0_0 - flow_20_3_0_0 - flow_20_4_0_0 - flow_20_6_0_0
   - flow_20_8_0_0 - flow_20_9_0_0 - flow_20_10_0_0 - flow_20_11_0_0
   - flow_20_14_0_0 - flow_20_15_0_0 - flow_20_16_0_0 - flow_20_17_0_0
   - flow_20_18_0_0 - flow_20_22_0_0 - flow_20_23_0_0 - flow_20_24_0_0
   - flow_20_25_0_0 - flow_20_26_0_0 - flow_20_27_0_0 - flow_20_28_0_0
   - flow_20_30_0_0 - flow_20_31_0_0 + flow_26_20_0_0 = 1
 one_parent_21: = 1
 consume_one_flow_unit_21: = 1
 one_parent_22: edge_3_22_0_0 + edge_4_22_0_0 + edge_6_22_0_0
   + edge_11_22_0_0 + edge_14_22_0_0 + edge_20_22_0_0 + edge_23_22_0_0
   + edge_24_22_0_0 = 1
 consume_one_flow_unit_22: flow_3_22_0_0 + flow_4_22_0_0 + flow_6_22_0_0
   + flow_11_22_0_0 + flow_14_22_0_0 + flow_20_22_0_0 + flow_23_22_0_0
   + flow_24_22_0_0 = 1
 one_parent_23: edge_2_23_0_0 + edge_3_23_0_0 + edge_4_23_0_0
   + edge_6_23_0_0 + edge_11_23_0_0 + edge_14_23_0_0 + edge_20_23_0_0
   + edge_24_23_0_0 = 1
 consume_one_flow_unit_23: flow_2_23_0_0 + flow_3_23_0_0 + flow_4_23_0_0
   + flow_6_23_0_0 + flow_11_23_0_0 + flow_14_23_0_0 + flow_20_23_0_0
   - flow_23_22_0_0 - flow_23_24_0_0 + flow_24_23_0_0 = 1
 one_parent_24: edge_2_24_0_0 + edge_4_24_0_0 + edge_6_24_0_0
   + edge_11_24_0_0 + edge_14_24_0_0 + edge_20_24_0_0 + edge_23_24_0_0
   + edge_26_24_0_0 = 1
 consume_one_flow_unit_24: flow_2_24_0_0 + flow_4_24_0_0 + flow_6_24_0_0
   + flow_11_24_0_0 + flow_14_24_0_0 + flow_20_24_0_0 + flow_23_24_0_0
   - flow_24_16_0_0 - flow_24_18_0_0 - flow_24_22_0_0 - flow_24_23_0_0
   - flow_24_25_0_0 - flow_24_26_0_0 - flow_24_27_0_0 - flow_24_28_0_0
   - flow_24_30_0_0 + flow_26_24_0_0 = 1
 one_parent_25: edge_6_25_0_0 + edge_11_25_0_0 + edge_20_25_0_0
   + edge_24_25_0_0 + edge_26_25_0_0 = 1
 consume_one_flow_unit_25: flow_6_25_0_0 + flow_11_25_0_0 + flow_20_25_0_0
   + flow_24_25_0_0 - flow_25_26_0_0 - flow_25_27_0_0 - flow_25_28_0_0
   - flow_25_30_0_0 + flow_26_25_0_0 = 1
 one_parent_26: edge_3_26_0_0 + edge_4_26_0_0 + edge_6_26_0_0
   + edge_11_26_0_0 + edge_20_26_0_0 + edge_24_26_0_0 + edge_25_26_0_0 = 1
 consume_one_flow_unit_26: flow_3_26_0_0 + flow_4_26_0_0 + flow_6_26_0_0
   + flow_11_26_0_0 + flow_20_26_0_0 + flow_24_26_0_0 + flow_25_26_0_0
   - flow_26_2_0_0 - flow_26_3_0_0 - flow_26_4_0_0 - flow_26_11_0_0
   - flow_26_16_0_0 - flow_26_20_0_0 - flow_26_24_0_0 - flow_26_25_0_0
   - flow_26_27_0_0 - flow_26_28_0_0 - flow_26_30_0_0 - flow_26_31_0_0 = 1
 one_parent_27: edge_20_27_0_0 + edge_24_27_0_0 + edge_25_27_0_0
   + edge_26_27_0_0 + edge_28_27_0_0 + edge_30_27_0_0 = 1
 consume_one_flow_unit_27: flow_20_27_0_0 + flow_24_27_0_0 + flow_25_27_0_0
   + flow_26_27_0_0 - flow_27_28_0_0 - flow_27_29_0_0 - flow_27_30_0_0
   + flow_28_27_0_0 + flow_30_27_0_0 = 1
 one_parent_28: edge_20_28_0_0 + edge_24_28_0_0 + edge_25_28_0_0
   + edge_26_28_0_0 + edge_27_28_0_0 + edge_29_28_0_0 + edge_30_28_0_0 = 1
 consume_one_flow_unit_28: flow_20_28_0_0 + flow_24_28_0_0 + flow_25_28_0_0
   + flow_26_28_0_0 + flow_27_28_0_0 - flow_28_27_0_0 - flow_28_29_0_0
   - flow_28_30_0_0 + flow_29_28_0_0 + flow_30_28_0_0 = 1
 one_parent_29: edge_27_29_0_0 + edge_28_29_0_0 + edge_30_29_0_0 = 1
 consume_one_flow_unit_29: flow_27_29_0_0 + flow_28_29_0_0 - flow_29_28_0_0
   + flow_30_29_0_0 = 1
 one_parent_30: edge_1_30_0_0 + edge_2_30_0_0 + edge_3_30_0_0
   + edge_8_30_0_0 + edge_11_30_0_0 + edge_20_30_0_0 + edge_24_30_0_0
   + edge_25_30_0_0 + edge_26_30_0_0 + edge_27_30_0_0 + edge_28_30_0_0
   + edge_31_30_0_0 = 1
 consume_one_flow_unit_30: flow_1_30_0_0 + flow_2_30_0_0 + flow_3_30_0_0
   + flow_8_30_0_0 + flow_11_30_0_0 + flow_20_30_0_0 + flow_24_30_0_0
   + flow_25_30_0_0 + flow_26_30_0_0 + flow_27_30_0_0 + flow_28_30_0_0
   - flow_30_1_0_0 - flow_30_3_0_0 - flow_30_8_0_0 - flow_30_11_0_0
   - flow_30_27_0_0 - flow_30_28_0_0 - flow_30_29_0_0 - flow_30_31_0_0
   + flow_31_30_0_0 = 1
 one_parent_31: edge_1_31_0_0 + edge_3_31_0_0 + edge_4_31_0_0
   + edge_6_31_0_0 + edge_8_31_0_0 + edge_11_31_0_0 + edge_14_31_0_0
   + edge_20_31_0_0 + edge_26_31_0_0 + edge_30_31_0_0 = 1
 consume_one_flow_unit_31: flow_1_31_0_0 + flow_3_31_0_0 + flow_4_31_0_0
   + flow_6_31_0_0 + flow_8_31_0_0 + flow_11_31_0_0 + flow_14_31_0_0
   + flow_20_31_0_0 + flow_26_31_0_0 + flow_30_31_0_0 - flow_31_30_0_0 = 1
 root_flow: flow_0_1_0_0 + flow_0_2_0_0 + flow_0_3_0_0 + flow_0_4_0_0
   + flow_0_6_0_0 + flow_0_8_0_0 + flow_0_11_0_0 + flow_0_14_0_0
   + flow_0_20_0_0 = 31
 inactive_no_flow_0_1_0_0: flow_0_1_0_0 - 1000 edge_0_1_0_0 <= 0
 inactive_no_flow_0_2_0_0: flow_0_2_0_0 - 1000 edge_0_2_0_0 <= 0
 inactive_no_flow_0_3_0_0: flow_0_3_0_0 - 1000 edge_0_3_0_0 <= 0
 inactive_no_flow_0_4_0_0: flow_0_4_0_0 - 1000 edge_0_4_0_0 <= 0
 inactive_no_flow_0_6_0_0: flow_0_6_0_0 - 1000 edge_0_6_0_0 <= 0
 inactive_no_flow_0_8_0_0: flow_0_8_0_0 - 1000 edge_0_8_0_0 <= 0
 inactive_no_flow_0_11_0_0: flow_0_11_0_0 - 1000 edge_0_11_0_0 <= 0
 inactive_no_flow_0_14_0_0: flow_0_14_0_0 - 1000 edge_0_14_0_0 <= 0
 inactive_no_flow_0_20_0_0: flow_0_20_0_0 - 1000 edge_0_20_0_0 <= 0
 inactive_no_flow_1_3_0_0: flow_1_3_0_0 - 1000 edge_1_3_0_0 <= 0
 inactive_no_flow_1_8_0_0: flow_1_8_0_0 - 1000 edge_1_8_0_0 <= 0
 inactive_no_flow_1_11_0_0: flow_1_11_0_0 - 1000 edge_1_11_0_0 <= 0
 inactive_no_flow_1_30_0_0: flow_1_30_0_0 - 1000 edge_1_30_0_0 <= 0
 inactive_no_flow_1_31_0_0: flow_1_31_0_0 - 1000 edge_1_31_0_0 <= 0
 inactive_no_flow_2_3_0_0: flow_2_3_0_0 - 1000 edge_2_3_0_0 <= 0
 inactive_no_flow_2_4_0_0: flow_2_4_0_0 - 1000 edge_2_4_0_0 <= 0
 inactive_no_flow_2_6_0_0: flow_2_6_0_0 - 1000 edge_2_6_0_0 <= 0
 inactive_no_flow_2_7_0_0: flow_2_7_0_0 - 1000 edge_2_7_0_0 <= 0
 inactive_no_flow_2_8_0_0: flow_2_8_0_0 - 1000 edge_2_8_0_0 <= 0
 inactive_no_flow_2_9_0_0: flow_2_9_0_0 - 1000 edge_2_9_0_0 <= 0
 inactive_no_flow_2_10_0_0: flow_2_10_0_0 - 1000 edge_2_10_0_0 <= 0
 inactive_no_flow_2_11_0_0: flow_2_11_0_0 - 1000 edge_2_11_0_0 <= 0
 inactive_no_flow_2_14_0_0: flow_2_14_0_0 - 1000 edge_2_14_0_0 <= 0
 inactive_no_flow_2_15_0_0: flow_2_15_0_0 - 1000 edge_2_15_0_0 <= 0
 inactive_no_flow_2_17_0_0: flow_2_17_0_0 - 1000 edge_2_17_0_0 <= 0
 inactive_no_flow_2_18_0_0: flow_2_18_0_0 - 1000 edge_2_18_0_0 <= 0
 inactive_no_flow_2_20_0_0: flow_2_20_0_0 - 1000 edge_2_20_0_0 <= 0
 inactive_no_flow_2_23_0_0: flow_2_23_0_0 - 1000 edge_2_23_0_0 <= 0
 inactive_no_flow_2_24_0_0: flow_2_24_0_0 - 1000 edge_2_24_0_0 <= 0
 inactive_no_flow_2_30_0_0: flow_2_30_0_0 - 1000 edge_2_30_0_0 <= 0
 inactive_no_flow_3_2_0_0: flow_3_2_0_0 - 1000 edge_3_2_0_0 <= 0
 inactive_no_flow_3_4_0_0: flow_3_4_0_0 - 1000 edge_3_4_0_0 <= 0
 inactive_no_flow_3_6_0_0: flow_3_6_0_0 - 1000 edge_3_6_0_0 <= 0
 inactive_no_flow_3_7_0_0: flow_3_7_0_0 - 1000 edge_3_7_0_0 <= 0
 inactive_no_flow_3_8_0_0: flow_3_8_0_0 - 1000 edge_3_8_0_0 <= 0
 inactive_no_flow_3_9_0_0: flow_3_9_0_0 - 1000 edge_3_9_0_0 <= 0
 inactive_no_flow_3_10_0_0: flow_3_10_0_0 - 1000 edge_3_10_0_0 <= 0
 inactive_no_flow_3_11_0_0: flow_3_11_0_0 - 1000 edge_3_11_0_0 <= 0
 inactive_no_flow_3_14_0_0: flow_3_14_0_0 - 1000 edge_3_14_0_0 <= 0
 inactive_no_flow_3_15_0_0: flow_3_15_0_0 - 1000 edge_3_15_0_0 <= 0
 inactive_no_flow_3_17_0_0: flow_3_17_0_0 - 1000 edge_3_17_0_0 <= 0
 inactive_no_flow_3_20_0_0: flow_3_20_0_0 - 1000 edge_3_20_0_0 <= 0
 inactive_no_flow_3_22_0_0: flow_3_22_0_0 - 1000 edge_3_22_0_0 <= 0
 inactive_no_flow_3_23_0_0: flow_3_23_0_0 - 1000 edge_3_23_0_0 <= 0
 inactive_no_flow_3_26_0_0: flow_3_26_0_0 - 1000 edge_3_26_0_0 <= 0
 inactive_no_flow_3_30_0_0: flow_3_30_0_0 - 1000 edge_3_30_0_0 <= 0
 inactive_no_flow_3_31_0_0: flow_3_31_0_0 - 1000 edge_3_31_0_0 <= 0
 inactive_no_flow_4_2_0_0: flow_4_2_0_0 - 1000 edge_4_2_0_0 <= 0
 inactive_no_flow_4_3_0_0: flow_4_3_0_0 - 1000 edge_4_3_0_0 <= 0
 inactive_no_flow_4_5_0_0: flow_4_5_0_0 - 1000 edge_4_5_0_0 <= 0
 inactive_no_flow_4_6_0_0: flow_4_6_0_0 - 1000 edge_4_6_0_0 <= 0
 inactive_no_flow_4_7_0_0: flow_4_7_0_0 - 1000 edge_4_7_0_0 <= 0
 inactive_no_flow_4_8_0_0: flow_4_8_0_0 - 1000 edge_4_8_0_0 <= 0
 inactive_no_flow_4_9_0_0: flow_4_9_0_0 - 1000 edge_4_9_0_0 <= 0
 inactive_no_flow_4_10_0_0: flow_4_10_0_0 - 1000 edge_4_10_0_0 <= 0
 inactive_no_flow_4_11_0_0: flow_4_11_0_0 - 1000 edge_4_11_0_0 <= 0
 inactive_no_flow_4_14_0_0: flow_4_14_0_0 - 1000 edge_4_14_0_0 <= 0
 inactive_no_flow_4_15_0_0: flow_4_15_0_0 - 1000 edge_4_15_0_0 <= 0
 inactive_no_flow_4_16_0_0: flow_4_16_0_0 - 1000 edge_4_16_0_0 <= 0
 inactive_no_flow_4_17_0_0: flow_4_17_0_0 - 1000 edge_4_17_0_0 <= 0
 inactive_no_flow_4_18_0_0: flow_4_18_0_0 - 1000 edge_4_18_0_0 <= 0
 inactive_no_flow_4_20_0_0: flow_4_20_0_0 - 1000 edge_4_20_0_0 <= 0
 inactive_no_flow_4_22_0_0: flow_4_22_0_0 - 1000 edge_4_22_0_0 <= 0
 inactive_no_flow_4_23_0_0: flow_4_23_0_0 - 1000 edge_4_23_0_0 <= 0
 inactive_no_flow_4_24_0_0: flow_4_24_0_0 - 1000 edge_4_24_0_0 <= 0
 inactive_no_flow_4_26_0_0: flow_4_26_0_0 - 1000 edge_4_26_0_0 <= 0
 inactive_no_flow_4_31_0_0: flow_4_31_0_0 - 1000 edge_4_31_0_0 <= 0
 inactive_no_flow_6_2_0_0: flow_6_2_0_0 - 1000 edge_6_2_0_0 <= 0
 inactive_no_flow_6_3_0_0: flow_6_3_0_0 - 1000 edge_6_3_0_0 <= 0
 inactive_no_flow_6_4_0_0: flow_6_4_0_0 - 1000 edge_6_4_0_0 <= 0
 inactive_no_flow_6_5_0_0: flow_6_5_0_0 - 1000 edge_6_5_0_0 <= 0
 inactive_no_flow_6_7_0_0: flow_6_7_0_0 - 1000 edge_6_7_0_0 <= 0
 inactive_no_flow_6_8_0_0: flow_6_8_0_0 - 1000 edge_6_8_0_0 <= 0
 inactive_no_flow_6_9_0_0: flow_6_9_0_0 - 1000 edge_6_9_0_0 <= 0
 inactive_no_flow_6_10_0_0: flow_6_10_0_0 - 1000 edge_6_10_0_0 <= 0
 inactive_no_flow_6_11_0_0: flow_6_11_0_0 - 1000 edge_6_11_0_0 <= 0
 inactive_no_flow_6_14_0_0: flow_6_14_0_0 - 1000 edge_6_14_0_0 <= 0
 inactive_no_flow_6_15_0_0: flow_6_15_0_0 - 1000 edge_6_15_0_0 <= 0
 inactive_no_flow_6_16_0_0: flow_6_16_0_0 - 1000 edge_6_16_0_0 <= 0
 inactive_no_flow_6_17_0_0: flow_6_17_0_0 - 1000 edge_6_17_0_0 <= 0
 inactive_no_flow_6_18_0_0: flow_6_18_0_0 - 1000 edge_6_18_0_0 <= 0
 inactive_no_flow_6_20_0_0: flow_6_20_0_0 - 1000 edge_6_20_0_0 <= 0
 inactive_no_flow_6_22_0_0: flow_6_22_0_0 - 1000 edge_6_22_0_0 <= 0
 inactive_no_flow_6_23_0_0: flow_6_23_0_0 - 1000 edge_6_23_0_0 <= 0
 inactive_no_flow_6_24_0_0: flow_6_24_0_0 - 1000 edge_6_24_0_0 <= 0
 inactive_no_flow_6_25_0_0: flow_6_25_0_0 - 1000 edge_6_25_0_0 <= 0
 inactive_no_flow_6_26_0_0: flow_6_26_0_0 - 1000 edge_6_26_0_0 <= 0
 inactive_no_flow_6_31_0_0: flow_6_31_0_0 - 1000 edge_6_31_0_0 <= 0
 inactive_no_flow_7_10_0_0: flow_7_10_0_0 - 1000 edge_7_10_0_0 <= 0
 inactive_no_flow_8_1_0_0: flow_8_1_0_0 - 1000 edge_8_1_0_0 <= 0
 inactive_no_flow_8_3_0_0: flow_8_3_0_0 - 1000 edge_8_3_0_0 <= 0
 inactive_no_flow_8_5_0_0: flow_8_5_0_0 - 1000 edge_8_5_0_0 <= 0
 inactive_no_flow_8_6_0_0: flow_8_6_0_0 - 1000 edge_8_6_0_0 <= 0
 inactive_no_flow_8_7_0_0: flow_8_7_0_0 - 1000 edge_8_7_0_0 <= 0
 inactive_no_flow_8_9_0_0: flow_8_9_0_0 - 1000 edge_8_9_0_0 <= 0
 inactive_no_flow_8_10_0_0: flow_8_10_0_0 - 1000 edge_8_10_0_0 <= 0
 inactive_no_flow_8_11_0_0: flow_8_11_0_0 - 1000 edge_8_11_0_0 <= 0
 inactive_no_flow_8_14_0_0: flow_8_14_0_0 - 1000 edge_8_14_0_0 <= 0
 inactive_no_flow_8_15_0_0: flow_8_15_0_0 - 1000 edge_8_15_0_0 <= 0
 inactive_no_flow_8_17_0_0: flow_8_17_0_0 - 1000 edge_8_17_0_0 <= 0
 inactive_no_flow_8_30_0_0: flow_8_30_0_0 - 1000 edge_8_30_0_0 <= 0
 inactive_no_flow_8_31_0_0: flow_8_31_0_0 - 1000 edge_8_31_0_0 <= 0
 inactive_no_flow_10_14_0_0: flow_10_14_0_0 - 1000 edge_10_14_0_0 <= 0
 inactive_no_flow_11_1_0_0: flow_11_1_0_0 - 1000 edge_11_1_0_0 <= 0
 inactive_no_flow_11_3_0_0: flow_11_3_0_0 - 1000 edge_11_3_0_0 <= 0
 inactive_no_flow_11_4_0_0: flow_11_4_0_0 - 1000 edge_11_4_0_0 <= 0
 inactive_no_flow_11_6_0_0: flow_11_6_0_0 - 1000 edge_11_6_0_0 <= 0
 inactive_no_flow_11_7_0_0: flow_11_7_0_0 - 1000 edge_11_7_0_0 <= 0
 inactive_no_flow_11_8_0_0: flow_11_8_0_0 - 1000 edge_11_8_0_0 <= 0
 inactive_no_flow_11_9_0_0: flow_11_9_0_0 - 1000 edge_11_9_0_0 <= 0
 inactive_no_flow_11_10_0_0: flow_11_10_0_0 - 1000 edge_11_10_0_0 <= 0
 inactive_no_flow_11_13_0_0: flow_11_13_0_0 - 1000 edge_11_13_0_0 <= 0
 inactive_no_flow_11_14_0_0: flow_11_14_0_0 - 1000 edge_11_14_0_0 <= 0
 inactive_no_flow_11_15_0_0: flow_11_15_0_0 - 1000 edge_11_15_0_0 <= 0
 inactive_no_flow_11_16_0_0: flow_11_16_0_0 - 1000 edge_11_16_0_0 <= 0
 inactive_no_flow_11_17_0_0: flow_11_17_0_0 - 1000 edge_11_17_0_0 <= 0
 inactive_no_flow_11_18_0_0: flow_11_18_0_0 - 1000 edge_11_18_0_0 <= 0
 inactive_no_flow_11_20_0_0: flow_11_20_0_0 - 1000 edge_11_20_0_0 <= 0
 inactive_no_flow_11_22_0_0: flow_11_22_0_0 - 1000 edge_11_22_0_0 <= 0
 inactive_no_flow_11_23_0_0: flow_11_23_0_0 - 1000 edge_11_23_0_0 <= 0
 inactive_no_flow_11_24_0_0: flow_11_24_0_0 - 1000 edge_11_24_0_0 <= 0
 inactive_no_flow_11_25_0_0: flow_11_25_0_0 - 1000 edge_11_25_0_0 <= 0
 inactive_no_flow_11_26_0_0: flow_11_26_0_0 - 1000 edge_11_26_0_0 <= 0
 inactive_no_flow_11_30_0_0: flow_11_30_0_0 - 1000 edge_11_30_0_0 <= 0
 inactive_no_flow_11_31_0_0: flow_11_31_0_0 - 1000 edge_11_31_0_0 <= 0
 inactive_no_flow_14_2_0_0: flow_14_2_0_0 - 1000 edge_14_2_0_0 <= 0
 inactive_no_flow_14_3_0_0: flow_14_3_0_0 - 1000 edge_14_3_0_0 <= 0
 inactive_no_flow_14_4_0_0: flow_14_4_0_0 - 1000 edge_14_4_0_0 <= 0
 inactive_no_flow_14_6_0_0: flow_14_6_0_0 - 1000 edge_14_6_0_0 <= 0
 inactive_no_flow_14_7_0_0: flow_14_7_0_0 - 1000 edge_14_7_0_0 <= 0
 inactive_no_flow_14_8_0_0: flow_14_8_0_0 - 1000 edge_14_8_0_0 <= 0
 inactive_no_flow_14_9_0_0: flow_14_9_0_0 - 1000 edge_14_9_0_0 <= 0
 inactive_no_flow_14_10_0_0: flow_14_10_0_0 - 1000 edge_14_10_0_0 <= 0
 inactive_no_flow_14_11_0_0: flow_14_11_0_0 - 1000 edge_14_11_0_0 <= 0
 inactive_no_flow_14_13_0_0: flow_14_13_0_0 - 1000 edge_14_13_0_0 <= 0
 inactive_no_flow_14_15_0_0: flow_14_15_0_0 - 1000 edge_14_15_0_0 <= 0
 inactive_no_flow_14_16_0_0: flow_14_16_0_0 - 1000 edge_14_16_0_0 <= 0
 inactive_no_flow_14_17_0_0: flow_14_17_0_0 - 1000 edge_14_17_0_0 <= 0
 inactive_no_flow_14_18_0_0: flow_14_18_0_0 - 1000 edge_14_18_0_0 <= 0
 inactive_no_flow_14_20_0_0: flow_14_20_0_0 - 1000 edge_14_20_0_0 <= 0
 inactive_no_flow_14_22_0_0: flow_14_22_0_0 - 1000 edge_14_22_0_0 <= 0
 inactive_no_flow_14_23_0_0: flow_14_23_0_0 - 1000 edge_14_23_0_0 <= 0
 inactive_no_flow_14_24_0_0: flow_14_24_0_0 - 1000 edge_14_24_0_0 <= 0
 inactive_no_flow_14_31_0_0: flow_14_31_0_0 - 1000 edge_14_31_0_0 <= 0
 inactive_no_flow_16_18_0_0: flow_16_18_0_0 - 1000 edge_16_18_0_0 <= 0
 inactive_no_flow_18_3_0_0: flow_18_3_0_0 - 1000 edge_18_3_0_0 <= 0
 inactive_no_flow_18_16_0_0: flow_18_16_0_0 - 1000 edge_18_16_0_0 <= 0
 inactive_no_flow_20_2_0_0: flow_20_2_0_0 - 1000 edge_20_2_0_0 <= 0
 inactive_no_flow_20_3_0_0: flow_20_3_0_0 - 1000 edge_20_3_0_0 <= 0
 inactive_no_flow_20_4_0_0: flow_20_4_0_0 - 1000 edge_20_4_0_0 <= 0
 inactive_no_flow_20_6_0_0: flow_20_6_0_0 - 1000 edge_20_6_0_0 <= 0
 inactive_no_flow_20_8_0_0: flow_20_8_0_0 - 1000 edge_20_8_0_0 <= 0
 inactive_no_flow_20_9_0_0: flow_20_9_0_0 - 1000 edge_20_9_0_0 <= 0
 inactive_no_flow_20_10_0_0: flow_20_10_0_0 - 1000 edge_20_10_0_0 <= 0
 inactive_no_flow_20_11_0_0: flow_20_11_0_0 - 1000 edge_20_11_0_0 <= 0
 inactive_no_flow_20_14_0_0: flow_20_14_0_0 - 1000 edge_20_14_0_0 <= 0
 inactive_no_flow_20_15_0_0: flow_20_15_0_0 - 1000 edge_20_15_0_0 <= 0
 inactive_no_flow_20_16_0_0: flow_20_16_0_0 - 1000 edge_20_16_0_0 <= 0
 inactive_no_flow_20_17_0_0: flow_20_17_0_0 - 1000 edge_20_17_0_0 <= 0
 inactive_no_flow_20_18_0_0: flow_20_18_0_0 - 1000 edge_20_18_0_0 <= 0
 inactive_no_flow_20_22_0_0: flow_20_22_0_0 - 1000 edge_20_22_0_0 <= 0
 inactive_no_flow_20_23_0_0: flow_20_23_0_0 - 1000 edge_20_23_0_0 <= 0
 inactive_no_flow_20_24_0_0: flow_20_24_0_0 - 1000 edge_20_24_0_0 <= 0
 inactive_no_flow_20_25_0_0: flow_20_25_0_0 - 1000 edge_20_25_0_0 <= 0
 inactive_no_flow_20_26_0_0: flow_20_26_0_0 - 1000 edge_20_26_0_0 <= 0
 inactive_no_flow_20_27_0_0: flow_20_27_0_0 - 1000 edge_20_27_0_0 <= 0
 inactive_no_flow_20_28_0_0: flow_20_28_0_0 - 1000 edge_20_28_0_0 <= 0
 inactive_no_flow_20_30_0_0: flow_20_30_0_0 - 1000 edge_20_30_0_0 <= 0
 inactive_no_flow_20_31_0_0: flow_20_31_0_0 - 1000 edge_20_31_0_0 <= 0
 inactive_no_flow_23_22_0_0: flow_23_22_0_0 - 1000 edge_23_22_0_0 <= 0
 inactive_no_flow_23_24_0_0: flow_23_24_0_0 - 1000 edge_23_24_0_0 <= 0
 inactive_no_flow_24_16_0_0: flow_24_16_0_0 - 1000 edge_24_16_0_0 <= 0
 inactive_no_flow_24_18_0_0: flow_24_18_0_0 - 1000 edge_24_18_0_0 <= 0
 inactive_no_flow_24_22_0_0: flow_24_22_0_0 - 1000 edge_24_22_0_0 <= 0
 inactive_no_flow_24_23_0_0: flow_24_23_0_0 - 1000 edge_24_23_0_0 <= 0
 inactive_no_flow_24_25_0_0: flow_24_25_0_0 - 1000 edge_24_25_0_0 <= 0
 inactive_no_flow_24_26_0_0: flow_24_26_0_0 - 1000 edge_24_26_0_0 <= 0
 inactive_no_flow_24_27_0_0: flow_24_27_0_0 - 1000 edge_24_27_0_0 <= 0
 inactive_no_flow_24_28_0_0: flow_24_28_0_0 - 1000 edge_24_28_0_0 <= 0
 inactive_no_flow_24_30_0_0: flow_24_30_0_0 - 1000 edge_24_30_0_0 <= 0
 inactive_no_flow_25_26_0_0: flow_25_26_0_0 - 1000 edge_25_26_0_0 <= 0
 inactive_no_flow_25_27_0_0: flow_25_27_0_0 - 1000 edge_25_27_0_0 <= 0
 inactive_no_flow_25_28_0_0: flow_25_28_0_0 - 1000 edge_25_28_0_0 <= 0
 inactive_no_flow_25_30_0_0: flow_25_30_0_0 - 1000 edge_25_30_0_0 <= 0
 inactive_no_flow_26_2_0_0: flow_26_2_0_0 - 1000 edge_26_2_0_0 <= 0
 inactive_no_flow_26_3_0_0: flow_26_3_0_0 - 1000 edge_26_3_0_0 <= 0
 inactive_no_flow_26_4_0_0: flow_26_4_0_0 - 1000 edge_26_4_0_0 <= 0
 inactive_no_flow_26_11_0_0: flow_26_11_0_0 - 1000 edge_26_11_0_0 <= 0
 inactive_no_flow_26_16_0_0: flow_26_16_0_0 - 1000 edge_26_16_0_0 <= 0
 inactive_no_flow_26_20_0_0: flow_26_20_0_0 - 1000 edge_26_20_0_0 <= 0
 inactive_no_flow_26_24_0_0: flow_26_24_0_0 - 1000 edge_26_24_0_0 <= 0
 inactive_no_flow_26_25_0_0: flow_26_25_0_0 - 1000 edge_26_25_0_0 <= 0
 inactive_no_flow_26_27_0_0: flow_26_27_0_0 - 1000 edge_26_27_0_0 <= 0
 inactive_no_flow_26_28_0_0: flow_26_28_0_0 - 1000 edge_26_28_0_0 <= 0
 inactive_no_flow_26_30_0_0: flow_26_30_0_0 - 1000 edge_26_30_0_0 <= 0
 inactive_no_flow_26_31_0_0: flow_26_31_0_0 - 1000 edge_26_31_0_0 <= 0
 inactive_no_flow_27_28_0_0: flow_27_28_0_0 - 1000 edge_27_28_0_0 <= 0
 inactive_no_flow_27_29_0_0: flow_27_29_0_0 - 1000 edge_27_29_0_0 <= 0
 inactive_no_flow_27_30_0_0: flow_27_30_0_0 - 1000 edge_27_30_0_0 <= 0
 inactive_no_flow_28_27_0_0: flow_28_27_0_0 - 1000 edge_28_27_0_0 <= 0
 inactive_no_flow_28_29_0_0: flow_28_29_0_0 - 1000 edge_28_29_0_0 <= 0
 inactive_no_flow_28_30_0_0: flow_28_30_0_0 - 1000 edge_28_30_0_0 <= 0
 inactive_no_flow_29_28_0_0: flow_29_28_0_0 - 1000 edge_29_28_0_0 <= 0
 inactive_no_flow_30_1_0_0: flow_30_1_0_0 - 1000 edge_30_1_0_0 <= 0
 inactive_no_flow_30_3_0_0: flow_30_3_0_0 - 1000 edge_30_3_0_0 <= 0
 inactive_no_flow_30_8_0_0: flow_30_8_0_0 - 1000 edge_30_8_0_0 <= 0
 inactive_no_flow_30_11_0_0: flow_30_11_0_0 - 1000 edge_30_11_0_0 <= 0
 inactive_no_flow_30_27_0_0: flow_30_27_0_0 - 1000 edge_30_27_0_0 <= 0
 inactive_no_flow_30_28_0_0: flow_30_28_0_0 - 1000 edge_30_28_0_0 <= 0
 inactive_no_flow_30_29_0_0: flow_30_29_0_0 - 1000 edge_30_29_0_0 <= 0
 inactive_no_flow_30_31_0_0: flow_30_31_0_0 - 1000 edge_30_31_0_0 <= 0
 inactive_no_flow_31_30_0_0: flow_31_30_0_0 - 1000 edge_31_30_0_0 <= 0
Bounds
Binaries
 edge_0_1_0_0 edge_0_2_0_0 edge_0_3_0_0 edge_0_4_0_0 edge_0_6_0_0
 edge_0_8_0_0 edge_0_11_0_0 edge_0_14_0_0 edge_0_20_0_0 edge_1_3_0_0
 edge_1_8_0_0 edge_1_11_0_0 edge_1_30_0_0 edge_1_31_0_0 edge_2_3_0_0
 edge_2_4_0_0 edge_2_6_0_0 edge_2_7_0_0 edge_2_8_0_0 edge_2_9_0_0
 edge_2_10_0_0 edge_2_11_0_0 edge_2_14_0_0 edge_2_15_0_0 edge_2_17_0_0
 edge_2_18_0_0 edge_2_20_0_0 edge_2_23_0_0 edge_2_24_0_0 edge_2_30_0_0
 edge_3_2_0_0 edge_3_4_0_0 edge_3_6_0_0 edge_3_7_0_0 edge_3_8_0_0
 edge_3_9_0_0 edge_3_10_0_0 edge_3_11_0_0 edge_3_14_0_0 edge_3_15_0_0
 edge_3_17_0_0 edge_3_20_0_0 edge_3_22_0_0 edge_3_23_0_0 edge_3_26_0_0
 edge_3_30_0_0 edge_3_31_0_0 edge_4_2_0_0 edge_4_3_0_0 edge_4_5_0_0
 edge_4_6_0_0 edge_4_7_0_0 edge_4_8_0_0 edge_4_9_0_0 edge_4_10_0_0
 edge_4_11_0_0 edge_4_14_0_0 edge_4_15_0_0 edge_4_16_0_0 edge_4_17_0_0
 edge_4_18_0_0 edge_4_20_0_0 edge_4_22_0_0 edge_4_23_0_0 edge_4_24_0_0
 edge_4_26_0_0 edge_4_31_0_0 edge_6_2_0_0 edge_6_3_0_0 edge_6_4_0_0
 edge_6_5_0_0 edge_6_7_0_0 edge_6_8_0_0 edge_6_9_0_0 edge_6_10_0_0
 edge_6_11_0_0 edge_6_14_0_0 edge_6_15_0_0 edge_6_16_0_0 edge_6_17_0_0
 edge_6_18_0_0 edge_6_20_0_0 edge_6_22_0_0 edge_6_23_0_0 edge_6_24_0_0
 edge_6_25_0_0 edge_6_26_0_0 edge_6_31_0_0 edge_7_10_0_0 edge_8_1_0_0
 edge_8_3_0_0 edge_8_5_0_0 edge_8_6_0_0 edge_8_7_0_0 edge_8_9_0_0
 edge_8_10_0_0 edge_8_11_0_0 edge_8_14_0_0 edge_8_15_0_0 edge_8_17_0_0
 edge_8_30_0_0 edge_8_31_0_0 edge_10_14_0_0 edge_11_1_0_0 edge_11_3_0_0
 edge_11_4_0_0 edge_11_6_0_0 edge_11_7_0_0 edge_11_8_0_0 edge_11_9_0_0
 edge_11_10_0_0 edge_11_13_0_0 edge_11_14_0_0 edge_11_15_0_0 edge_11_16_0_0
 edge_11_17_0_0 edge_11_18_0_0 edge_11_20_0_0 edge_11_22_0_0 edge_11_23_0_0
 edge_11_24_0_0 edge_11_25_0_0 edge_11_26_0_0 edge_11_30_0_0 edge_11_31_0_0
 edge_14_2_0_0 edge_14_3_0_0 edge_14_4_0_0 edge_14_6_0_0 edge_14_7_0_0
 edge_14_8_0_0 edge_14_9_0_0 edge_14_10_0_0 edge_14_11_0_0 edge_14_13_0_0
 edge_14_15_0_0 edge_14_16_0_0 edge_14_17_0_0 edge_14_18_0_0 edge_14_20_0_0
 edge_14_22_0_0 edge_14_23_0_0 edge_14_24_0_0 edge_14_31_0_0 edge_16_18_0_0
 edge_18_3_0_0 edge_18_16_0_0 edge_20_2_0_0 edge_20_3_0_0 edge_20_4_0_0
 edge_20_6_0_0 edge_20_8_0_0 edge_20_9_0_0 edge_20_10_0_0 edge_20_11_0_0
 edge_20_14_0_0 edge_20_15_0_0 edge_20_16_0_0 edge_20_17_0_0 edge_20_18_0_0
 edge_20_22_0_0 edge_20_23_0_0 edge_20_24_0_0 edge_20_25_0_0 edge_20_26_0_0
 edge_20_27_0_0 edge_20_28_0_0 edge_20_30_0_0 edge_20_31_0_0 edge_23_22_0_0
 edge_23_24_0_0 edge_24_16_0_0 edge_24_18_0_0 edge_24_22_0_0 edge_24_23_0_0
 edge_24_25_0_0 edge_24_26_0_0 edge_24_27_0_0 edge_24_28_0_0 edge_24_30_0_0
 edge_25_26_0_0 edge_25_27_0_0 edge_25_28_0_0 edge_25_30_0_0 edge_26_2_0_0
 edge_26_3_0_0 edge_26_4_0_0 edge_26_11_0_0 edge_26_16_0_0 edge_26_20_0_0
 edge_26_24_0_0 edge_26_25_0_0 edge_26_27_0_0 edge_26_28_0_0 edge_26_30_0_0
 edge_26_31_0_0 edge_27_28_0_0 edge_27_29_0_0 edge_27_30_0_0 edge_28_27_0_0
 edge_28_29_0_0 edge_28_30_0_0 edge_29_28_0_0 edge_30_1_0_0 edge_30_3_0_0
 edge_30_8_0_0 edge_30_11_0_0 edge_30_27_0_0 edge_30_28_0_0 edge_30_29_0_0
 edge_30_31_0_0 edge_31_30_0_0
End
